Sun 20 May 09:20:02 CEST 2018
CPXPARAM_TimeLimit                               45
CPXPARAM_Threads                                 4
CPXPARAM_MIP_Strategy_CallbackReducedLP          0
Tried aggregator 7 times.
MIP Presolve eliminated 4966 rows and 3637 columns.
MIP Presolve modified 2716 coefficients.
Aggregator did 4984 substitutions.
Reduced MIP has 9680 rows, 9372 columns, and 24724 nonzeros.
Reduced MIP has 8348 binaries, 12 generals, 0 SOSs, and 1862 indicators.
Presolve time = 0.10 sec. (176.85 ticks)
Probing time = 0.25 sec. (87.98 ticks)
Tried aggregator 6 times.
Aggregator did 4556 substitutions.
Reduced MIP has 5124 rows, 4816 columns, and 15612 nonzeros.
Reduced MIP has 3792 binaries, 1024 generals, 0 SOSs, and 1862 indicators.
Presolve time = 0.05 sec. (54.70 ticks)
Probing time = 0.06 sec. (31.28 ticks)
Tried aggregator 1 time.
Reduced MIP has 5124 rows, 4816 columns, and 15612 nonzeros.
Reduced MIP has 3792 binaries, 1024 generals, 0 SOSs, and 1862 indicators.
Presolve time = 0.02 sec. (14.76 ticks)
Probing time = 0.01 sec. (5.61 ticks)
Clique table members: 156617.
MIP emphasis: balance optimality and feasibility.
MIP search method: dynamic search.
Parallel mode: deterministic, using up to 4 threads.
Root relaxation solution time = 0.02 sec. (20.97 ticks)

        Nodes                                         Cuts/
   Node  Left     Objective  IInf  Best Integer    Best Bound    ItCnt     Gap

      0     0        0.0000  2021                      0.0000      264         
*     0+    0                           14.0000        0.0000           100.00%
      0     0        0.0000  1751       14.0000 Cliques: 1381      597   85.71%
*     0+    0                            5.0000        2.0000            60.00%
      0     0        0.0000  1379        5.0000 Cliques: 1381     1198   60.00%
      0     0        0.0000  1248        5.0000 Cliques: 1381     1611   60.00%

Repeating presolve.
Tried aggregator 3 times.
MIP Presolve eliminated 4172 rows and 3236 columns.
MIP Presolve modified 1 coefficients.
Aggregator did 6 substitutions.
Reduced MIP has 1042 rows, 914 columns, and 3018 nonzeros.
Reduced MIP has 722 binaries, 192 generals, 0 SOSs, and 230 indicators.
Presolve time = 0.01 sec. (14.95 ticks)
Probing time = 0.01 sec. (5.21 ticks)
Tried aggregator 2 times.
Aggregator did 44 substitutions.
Reduced MIP has 998 rows, 870 columns, and 2930 nonzeros.
Reduced MIP has 678 binaries, 192 generals, 0 SOSs, and 230 indicators.
Presolve time = 0.00 sec. (2.86 ticks)
Probing time = 0.01 sec. (5.10 ticks)
Tried aggregator 1 time.
Reduced MIP has 998 rows, 870 columns, and 2930 nonzeros.
Reduced MIP has 678 binaries, 192 generals, 0 SOSs, and 230 indicators.
Presolve time = 0.00 sec. (2.78 ticks)
Represolve time = 0.15 sec. (340.34 ticks)
Probing time = 0.00 sec. (2.62 ticks)
Clique table members: 2038.
MIP emphasis: balance optimality and feasibility.
MIP search method: dynamic search.
Parallel mode: deterministic, using up to 4 threads.
Root relaxation solution time = 0.02 sec. (13.98 ticks)

        Nodes                                         Cuts/
   Node  Left     Objective  IInf  Best Integer    Best Bound    ItCnt     Gap

*     0+    0                            5.0000        2.0000            60.00%
      0     0        0.2667   456        5.0000        2.0000     1791   60.00%
      0     0        0.2667   407        5.0000  Cliques: 349     1865   60.00%
      0     0        1.0000   300        5.0000     Cuts: 349     2005   60.00%
      0     0        1.0000   281        5.0000     Cuts: 349     2114   60.00%
      0     0        1.0000   269        5.0000     Cuts: 349     2218   60.00%
      0     0        1.0000   270        5.0000     Cuts: 349     2341   60.00%
      0     0        1.0000   268        5.0000     Cuts: 106     2460   60.00%
      0     2        1.0000   251        5.0000        2.0000     2460   60.00%
Elapsed time = 9.53 sec. (8931.74 ticks, tree = 0.01 MB, solutions = 2)
     79    35        2.0000   168        5.0000        2.0000    10981   60.00%
    258    73    infeasible              5.0000        2.0000    23676   60.00%
    477    80        4.0000    68        5.0000        2.0000    34903   60.00%
    701    45        4.0000   119        5.0000        4.0000    52772   20.00%
   1284    44        4.0000    62        5.0000        4.0000    66577   20.00%
   1715    54        4.0000   123        5.0000        4.0000    78349   20.00%
   2045    23    infeasible              5.0000        4.0000    95411   20.00%

Clique cuts applied:  880
Implied bound cuts applied:  591
Zero-half cuts applied:  54
Lift and project cuts applied:  1
Gomory fractional cuts applied:  3

Root node processing (before b&c):
  Real time             =    9.53 sec. (8931.25 ticks)
Parallel b&c, 4 threads:
  Real time             =    2.05 sec. (1806.36 ticks)
  Sync time (average)   =    0.31 sec.
  Wait time (average)   =    0.00 sec.
                          ------------
Total (root+branch&cut) =   11.57 sec. (10737.61 ticks)
   | W
 L |  0  1 2  3  4 5 6 
----------------------
 0 |  6  6 2  9  9 7 7 
 1 | 10 10 .  9  9 7 7 
 2 | 10 10 . 11 11 8 8 
 3 |  .  4 4 11 11 8 8 
 4 |  .  . 3  3  5 5 1 
 5 |  .  . .  .  . . . 
 6 |  .  . .  .  . . . 
 7 |  .  . .  .  . . . 
 8 |  .  . .  .  . . . 
 9 |  .  . .  .  . . . 
10 |  .  . .  .  . . . 
11 |  .  . .  .  . . . 
12 |  .  . .  .  . . . 
13 |  .  . .  .  . . . 
14 |  .  . .  .  . . . 
15 |  .  . .  .  . . . 
16 |  .  . .  .  . . . 
17 |  .  . .  .  . . . 
18 |  .  . .  .  . . . 
19 |  .  . .  .  . . . 

Boxes' corners:       (w,l)
    Box  1 is at 
        top left     (6,4)
        bottom right (6,4)

    Box  2 is at 
        top left     (2,0)
        bottom right (2,0)

    Box  3 is at 
        top left     (2,4)
        bottom right (3,4)

    Box  4 is at 
        top left     (1,3)
        bottom right (2,3)

    Box  5 is at 
        top left     (4,4)
        bottom right (5,4)

    Box  6 is at 
        top left     (0,0)
        bottom right (1,0)

    Box  7 is at 
        top left     (5,0)
        bottom right (6,1)

    Box  8 is at 
        top left     (5,2)
        bottom right (6,3)

    Box  9 is at 
        top left     (3,0)
        bottom right (4,1)

    Box 10 is at 
        top left     (0,1)
        bottom right (1,2)

    Box 11 is at 
        top left     (3,2)
        bottom right (4,3)

    Roll length used: 5
In 35.42 seconds
